param n := 120;
param c := 3000
param : V : p w :=
   0	 443	 433
   1	 270	 260
   2	 317	 307
   3	 503	 493
   4	 262	 252
   5	 265	 255
   6	 425	 415
   7	 290	 280
   8	 315	 305
   9	 467	 457
  10	 263	 253
  11	 300	 290
  12	 501	 491
  13	 261	 251
  14	 268	 258
  15	 385	 375
  16	 264	 254
  17	 381	 371
  18	 412	 402
  19	 299	 289
  20	 319	 309
  21	 420	 410
  22	 285	 275
  23	 325	 315
  24	 403	 393
  25	 285	 275
  26	 342	 332
  27	 472	 462
  28	 269	 259
  29	 289	 279
  30	 424	 414
  31	 264	 254
  32	 342	 332
  33	 365	 355
  34	 322	 312
  35	 343	 333
  36	 484	 474
  37	 268	 258
  38	 278	 268
  39	 430	 420
  40	 292	 282
  41	 308	 298
  42	 463	 453
  43	 282	 272
  44	 285	 275
  45	 418	 408
  46	 299	 289
  47	 313	 303
  48	 421	 411
  49	 270	 260
  50	 339	 329
  51	 373	 363
  52	 313	 303
  53	 344	 334
  54	 457	 447
  55	 265	 255
  56	 308	 298
  57	 481	 471
  58	 266	 256
  59	 283	 273
  60	 509	 499
  61	 260	 250
  62	 261	 251
  63	 434	 424
  64	 287	 277
  65	 309	 299
  66	 475	 465
  67	 267	 257
  68	 288	 278
  69	 383	 373
  70	 279	 269
  71	 368	 358
  72	 504	 494
  73	 260	 250
  74	 266	 256
  75	 423	 413
  76	 291	 281
  77	 316	 306
  78	 472	 462
  79	 267	 257
  80	 291	 281
  81	 445	 435
  82	 290	 280
  83	 295	 285
  84	 490	 480
  85	 260	 250
  86	 280	 270
  87	 399	 389
  88	 281	 271
  89	 350	 340
  90	 472	 462
  91	 264	 254
  92	 294	 284
  93	 479	 469
  94	 269	 259
  95	 282	 272
  96	 361	 351
  97	 301	 291
  98	 368	 358
  99	 399	 389
 100	 278	 268
 101	 353	 343
 102	 393	 383
 103	 292	 282
 104	 345	 335
 105	 404	 394
 106	 298	 288
 107	 328	 318
 108	 403	 393
 109	 268	 258
 110	 359	 349
 111	 492	 482
 112	 267	 257
 113	 271	 261
 114	 373	 363
 115	 292	 282
 116	 365	 355
 117	 433	 423
 118	 274	 264
 119	 323	 313
;

set E :=
   0	  10
   0	  12
   0	  13
   0	  14
   0	  15
   0	  17
   0	  18
   0	  20
   0	  21
   0	  23
   0	  26
   0	  28
   0	  37
   0	  38
   0	  42
   0	  43
   0	  44
   0	  47
   0	  52
   0	  54
   0	  55
   0	  60
   0	  63
   0	  68
   0	  77
   0	  78
   0	  84
   0	  85
   0	  86
   0	  90
   0	  92
   0	  95
   0	  98
   0	 100
   0	 101
   0	 104
   0	 109
   0	 110
   0	 111
   0	 112
   0	 113
   1	   2
   1	   3
   1	   4
   1	   5
   1	  10
   1	  14
   1	  17
   1	  18
   1	  22
   1	  26
   1	  32
   1	  33
   1	  34
   1	  36
   1	  37
   1	  41
   1	  43
   1	  46
   1	  51
   1	  54
   1	  56
   1	  57
   1	  59
   1	  62
   1	  63
   1	  64
   1	  65
   1	  66
   1	  67
   1	  71
   1	  73
   1	  74
   1	  77
   1	  78
   1	  82
   1	  87
   1	  89
   1	  90
   1	  92
   1	  94
   1	  97
   1	  99
   1	 100
   1	 101
   1	 107
   1	 108
   1	 110
   1	 111
   1	 114
   1	 116
   1	 117
   2	   4
   2	   6
   2	   8
   2	  18
   2	  20
   2	  22
   2	  23
   2	  25
   2	  27
   2	  33
   2	  34
   2	  35
   2	  36
   2	  39
   2	  40
   2	  43
   2	  45
   2	  48
   2	  53
   2	  54
   2	  59
   2	  60
   2	  61
   2	  62
   2	  63
   2	  65
   2	  67
   2	  68
   2	  69
   2	  72
   2	  75
   2	  77
   2	  80
   2	  82
   2	  83
   2	  84
   2	  85
   2	  89
   2	  93
   2	  95
   2	  98
   2	 106
   2	 108
   2	 113
   2	 116
   2	 118
   3	   4
   3	   6
   3	   7
   3	  12
   3	  18
   3	  19
   3	  20
   3	  21
   3	  22
   3	  24
   3	  30
   3	  31
   3	  32
   3	  35
   3	  37
   3	  39
   3	  40
   3	  41
   3	  42
   3	  45
   3	  46
   3	  51
   3	  57
   3	  59
   3	  62
   3	  64
   3	  68
   3	  74
   3	  76
   3	  78
   3	  79
   3	  81
   3	  83
   3	  96
   3	 100
   3	 102
   3	 105
   3	 106
   3	 107
   3	 108
   3	 109
   3	 110
   3	 111
   3	 114
   3	 117
   3	 119
   4	   5
   4	  12
   4	  13
   4	  14
   4	  15
   4	  17
   4	  18
   4	  20
   4	  21
   4	  24
   4	  25
   4	  26
   4	  27
   4	  29
   4	  33
   4	  34
   4	  35
   4	  36
   4	  37
   4	  38
   4	  39
   4	  42
   4	  46
   4	  47
   4	  53
   4	  58
   4	  63
   4	  64
   4	  67
   4	  69
   4	  70
   4	  72
   4	  77
   4	  78
   4	  79
   4	  84
   4	  86
   4	  90
   4	  91
   4	  92
   4	  93
   4	  94
   4	  98
   4	 100
   4	 102
   4	 103
   4	 104
   4	 105
   4	 109
   4	 112
   4	 117
   4	 118
   5	   7
   5	  15
   5	  16
   5	  20
   5	  26
   5	  30
   5	  32
   5	  35
   5	  40
   5	  41
   5	  44
   5	  47
   5	  49
   5	  51
   5	  52
   5	  53
   5	  56
   5	  59
   5	  63
   5	  64
   5	  70
   5	  72
   5	  75
   5	  76
   5	  79
   5	  82
   5	  83
   5	  86
   5	  90
   5	  92
   5	  99
   5	 100
   5	 104
   5	 108
   5	 111
   5	 112
   5	 114
   5	 115
   5	 118
   6	   7
   6	  10
   6	  11
   6	  15
   6	  17
   6	  18
   6	  23
   6	  26
   6	  29
   6	  31
   6	  36
   6	  38
   6	  39
   6	  41
   6	  42
   6	  43
   6	  50
   6	  51
   6	  54
   6	  63
   6	  64
   6	  66
   6	  67
   6	  70
   6	  75
   6	  77
   6	  78
   6	  80
   6	  84
   6	  89
   6	  91
   6	  92
   6	  93
   6	  95
   6	  99
   6	 101
   6	 102
   6	 105
   6	 110
   6	 111
   6	 113
   6	 115
   6	 116
   6	 118
   7	   9
   7	  10
   7	  11
   7	  18
   7	  21
   7	  31
   7	  37
   7	  39
   7	  40
   7	  45
   7	  46
   7	  56
   7	  58
   7	  61
   7	  62
   7	  63
   7	  64
   7	  66
   7	  67
   7	  68
   7	  73
   7	  80
   7	  81
   7	  82
   7	  84
   7	  85
   7	  86
   7	  92
   7	  95
   7	  96
   7	  98
   7	  99
   7	 102
   7	 103
   7	 105
   7	 106
   7	 107
   7	 109
   7	 111
   7	 112
   7	 113
   7	 114
   7	 115
   7	 116
   7	 117
   7	 119
   8	  10
   8	  11
   8	  14
   8	  19
   8	  20
   8	  21
   8	  26
   8	  27
   8	  29
   8	  31
   8	  32
   8	  33
   8	  35
   8	  37
   8	  38
   8	  42
   8	  45
   8	  51
   8	  52
   8	  55
   8	  56
   8	  57
   8	  65
   8	  68
   8	  69
   8	  70
   8	  71
   8	  72
   8	  74
   8	  77
   8	  82
   8	  83
   8	  84
   8	  86
   8	  87
   8	  88
   8	  91
   8	  96
   8	  97
   8	 103
   8	 104
   8	 105
   8	 106
   8	 110
   8	 112
   8	 115
   8	 117
   8	 118
   9	  13
   9	  14
   9	  18
   9	  21
   9	  25
   9	  26
   9	  27
   9	  28
   9	  32
   9	  33
   9	  36
   9	  37
   9	  38
   9	  40
   9	  44
   9	  49
   9	  50
   9	  52
   9	  59
   9	  60
   9	  61
   9	  65
   9	  66
   9	  67
   9	  69
   9	  70
   9	  71
   9	  75
   9	  77
   9	  78
   9	  80
   9	  81
   9	  82
   9	  83
   9	  85
   9	  88
   9	  90
   9	  94
   9	  96
   9	  97
   9	 100
   9	 101
   9	 105
   9	 116
   9	 117
   9	 118
   9	 119
  10	  11
  10	  12
  10	  13
  10	  14
  10	  15
  10	  16
  10	  19
  10	  24
  10	  25
  10	  27
  10	  30
  10	  32
  10	  33
  10	  37
  10	  40
  10	  42
  10	  43
  10	  44
  10	  49
  10	  51
  10	  52
  10	  57
  10	  59
  10	  60
  10	  63
  10	  66
  10	  67
  10	  70
  10	  73
  10	  77
  10	  82
  10	  83
  10	  87
  10	  94
  10	  95
  10	  96
  10	  99
  10	 102
  10	 106
  10	 108
  10	 109
  10	 112
  10	 113
  10	 116
  10	 119
  11	  12
  11	  14
  11	  15
  11	  19
  11	  21
  11	  22
  11	  23
  11	  24
  11	  25
  11	  26
  11	  29
  11	  33
  11	  36
  11	  37
  11	  38
  11	  39
  11	  41
  11	  42
  11	  44
  11	  46
  11	  52
  11	  53
  11	  55
  11	  58
  11	  59
  11	  61
  11	  64
  11	  66
  11	  68
  11	  70
  11	  71
  11	  72
  11	  78
  11	  80
  11	  82
  11	  85
  11	  87
  11	  91
  11	  93
  11	  95
  11	  98
  11	  99
  11	 101
  11	 103
  11	 104
  11	 110
  11	 112
  11	 115
  11	 116
  12	  15
  12	  16
  12	  17
  12	  18
  12	  19
  12	  26
  12	  28
  12	  36
  12	  38
  12	  42
  12	  43
  12	  44
  12	  45
  12	  46
  12	  51
  12	  52
  12	  53
  12	  56
  12	  58
  12	  60
  12	  61
  12	  63
  12	  65
  12	  66
  12	  70
  12	  73
  12	  75
  12	  77
  12	  81
  12	  83
  12	  86
  12	  88
  12	  90
  12	  92
  12	  98
  12	 102
  12	 103
  12	 106
  12	 111
  12	 112
  12	 115
  13	  16
  13	  18
  13	  20
  13	  23
  13	  30
  13	  31
  13	  33
  13	  35
  13	  37
  13	  40
  13	  41
  13	  43
  13	  52
  13	  53
  13	  54
  13	  57
  13	  58
  13	  60
  13	  64
  13	  66
  13	  68
  13	  69
  13	  71
  13	  72
  13	  75
  13	  76
  13	  78
  13	  81
  13	  83
  13	  85
  13	  87
  13	  90
  13	  91
  13	  93
  13	  94
  13	  98
  13	 100
  13	 101
  13	 102
  13	 103
  13	 104
  13	 105
  13	 106
  13	 107
  13	 109
  13	 113
  13	 117
  13	 118
  14	  20
  14	  24
  14	  27
  14	  28
  14	  33
  14	  34
  14	  35
  14	  39
  14	  42
  14	  45
  14	  51
  14	  54
  14	  56
  14	  57
  14	  64
  14	  70
  14	  74
  14	  79
  14	  80
  14	  81
  14	  85
  14	  89
  14	  91
  14	  95
  14	  98
  14	  99
  14	 101
  14	 104
  14	 105
  14	 109
  14	 114
  14	 116
  14	 117
  14	 118
  14	 119
  15	  17
  15	  18
  15	  20
  15	  24
  15	  27
  15	  28
  15	  31
  15	  33
  15	  36
  15	  38
  15	  41
  15	  42
  15	  45
  15	  49
  15	  53
  15	  57
  15	  59
  15	  62
  15	  64
  15	  65
  15	  66
  15	  68
  15	  76
  15	  78
  15	  84
  15	  85
  15	  87
  15	  89
  15	  91
  15	  92
  15	  94
  15	  96
  15	  98
  15	 100
  15	 101
  15	 103
  15	 104
  15	 105
  15	 106
  15	 108
  15	 109
  15	 110
  15	 112
  15	 113
  15	 114
  15	 118
  15	 119
  16	  24
  16	  25
  16	  27
  16	  32
  16	  35
  16	  45
  16	  46
  16	  47
  16	  50
  16	  52
  16	  54
  16	  56
  16	  60
  16	  62
  16	  67
  16	  70
  16	  71
  16	  74
  16	  77
  16	  79
  16	  80
  16	  81
  16	  83
  16	  84
  16	  86
  16	  93
  16	  94
  16	  96
  16	  97
  16	  98
  16	 100
  16	 101
  16	 102
  16	 103
  16	 107
  16	 109
  16	 112
  16	 115
  16	 116
  17	  18
  17	  19
  17	  20
  17	  26
  17	  27
  17	  28
  17	  29
  17	  30
  17	  34
  17	  35
  17	  37
  17	  38
  17	  44
  17	  45
  17	  46
  17	  49
  17	  50
  17	  55
  17	  56
  17	  59
  17	  61
  17	  67
  17	  70
  17	  74
  17	  75
  17	  76
  17	  78
  17	  81
  17	  82
  17	  87
  17	  90
  17	  96
  17	  97
  17	  98
  17	 102
  17	 111
  17	 115
  18	  20
  18	  21
  18	  23
  18	  25
  18	  27
  18	  29
  18	  30
  18	  31
  18	  34
  18	  37
  18	  40
  18	  48
  18	  49
  18	  51
  18	  52
  18	  54
  18	  55
  18	  56
  18	  60
  18	  62
  18	  64
  18	  65
  18	  67
  18	  68
  18	  71
  18	  72
  18	  73
  18	  76
  18	  78
  18	  80
  18	  82
  18	  85
  18	  87
  18	  89
  18	  90
  18	  91
  18	  93
  18	  94
  18	  97
  18	  99
  18	 100
  18	 101
  18	 108
  18	 111
  18	 112
  18	 114
  18	 115
  18	 116
  18	 117
  19	  20
  19	  23
  19	  24
  19	  25
  19	  29
  19	  31
  19	  32
  19	  33
  19	  34
  19	  38
  19	  41
  19	  42
  19	  45
  19	  46
  19	  47
  19	  48
  19	  50
  19	  51
  19	  52
  19	  54
  19	  56
  19	  58
  19	  59
  19	  60
  19	  61
  19	  62
  19	  63
  19	  64
  19	  67
  19	  72
  19	  74
  19	  75
  19	  84
  19	  86
  19	  87
  19	  88
  19	  89
  19	  96
  19	  97
  19	 101
  19	 102
  19	 103
  19	 108
  19	 115
  19	 116
  19	 119
  20	  26
  20	  27
  20	  30
  20	  32
  20	  33
  20	  40
  20	  41
  20	  44
  20	  48
  20	  51
  20	  53
  20	  54
  20	  58
  20	  63
  20	  67
  20	  69
  20	  71
  20	  76
  20	  77
  20	  78
  20	  79
  20	  83
  20	  84
  20	  88
  20	  92
  20	  93
  20	  97
  20	  98
  20	 102
  20	 104
  20	 105
  20	 106
  20	 108
  20	 110
  20	 112
  20	 115
  20	 116
  20	 117
  21	  22
  21	  25
  21	  27
  21	  28
  21	  34
  21	  36
  21	  42
  21	  43
  21	  48
  21	  50
  21	  52
  21	  53
  21	  56
  21	  58
  21	  59
  21	  62
  21	  69
  21	  72
  21	  78
  21	  79
  21	  82
  21	  84
  21	  88
  21	  89
  21	  97
  21	  99
  21	 103
  21	 105
  21	 110
  21	 111
  21	 112
  21	 114
  21	 119
  22	  24
  22	  26
  22	  29
  22	  34
  22	  35
  22	  37
  22	  38
  22	  39
  22	  40
  22	  42
  22	  43
  22	  44
  22	  49
  22	  54
  22	  55
  22	  56
  22	  57
  22	  58
  22	  60
  22	  61
  22	  63
  22	  64
  22	  65
  22	  67
  22	  71
  22	  72
  22	  80
  22	  81
  22	  83
  22	  91
  22	  94
  22	  96
  22	  99
  22	 102
  22	 103
  22	 104
  22	 107
  22	 112
  22	 117
  22	 118
  22	 119
  23	  25
  23	  28
  23	  30
  23	  38
  23	  40
  23	  43
  23	  45
  23	  46
  23	  47
  23	  52
  23	  53
  23	  54
  23	  55
  23	  58
  23	  59
  23	  60
  23	  61
  23	  62
  23	  64
  23	  68
  23	  69
  23	  70
  23	  75
  23	  79
  23	  84
  23	  86
  23	  89
  23	  90
  23	  97
  23	  99
  23	 100
  23	 102
  23	 104
  23	 108
  23	 114
  23	 119
  24	  26
  24	  28
  24	  30
  24	  33
  24	  42
  24	  52
  24	  63
  24	  64
  24	  65
  24	  67
  24	  68
  24	  75
  24	  80
  24	  83
  24	  84
  24	  85
  24	  90
  24	  92
  24	  93
  24	  95
  24	  97
  24	  99
  24	 101
  24	 102
  24	 105
  24	 107
  24	 112
  24	 113
  24	 114
  24	 117
  24	 118
  24	 119
  25	  28
  25	  35
  25	  36
  25	  37
  25	  39
  25	  41
  25	  44
  25	  49
  25	  50
  25	  51
  25	  55
  25	  57
  25	  63
  25	  67
  25	  72
  25	  74
  25	  76
  25	  79
  25	  80
  25	  84
  25	  90
  25	  91
  25	  93
  25	  97
  25	  98
  25	 101
  25	 102
  25	 103
  25	 105
  25	 109
  25	 110
  25	 115
  25	 117
  25	 118
  26	  28
  26	  29
  26	  30
  26	  33
  26	  34
  26	  35
  26	  37
  26	  38
  26	  40
  26	  45
  26	  48
  26	  49
  26	  50
  26	  53
  26	  54
  26	  56
  26	  57
  26	  59
  26	  62
  26	  63
  26	  65
  26	  67
  26	  76
  26	  78
  26	  80
  26	  83
  26	  86
  26	  89
  26	  91
  26	  93
  26	  94
  26	  96
  26	  97
  26	  99
  26	 101
  26	 103
  26	 105
  26	 109
  26	 112
  26	 115
  26	 116
  27	  35
  27	  36
  27	  39
  27	  41
  27	  43
  27	  45
  27	  47
  27	  48
  27	  49
  27	  52
  27	  53
  27	  55
  27	  56
  27	  57
  27	  59
  27	  60
  27	  61
  27	  66
  27	  67
  27	  68
  27	  70
  27	  73
  27	  77
  27	  78
  27	  79
  27	  82
  27	  83
  27	  84
  27	  85
  27	  87
  27	  93
  27	  96
  27	  97
  27	  99
  27	 102
  27	 103
  27	 105
  27	 107
  27	 114
  27	 118
  28	  30
  28	  31
  28	  32
  28	  33
  28	  37
  28	  43
  28	  44
  28	  46
  28	  47
  28	  48
  28	  49
  28	  51
  28	  54
  28	  57
  28	  58
  28	  59
  28	  61
  28	  62
  28	  64
  28	  75
  28	  77
  28	  80
  28	  81
  28	  82
  28	  87
  28	  91
  28	  98
  28	 101
  28	 102
  28	 104
  28	 108
  28	 109
  28	 111
  28	 115
  28	 117
  29	  31
  29	  32
  29	  33
  29	  37
  29	  38
  29	  39
  29	  42
  29	  43
  29	  51
  29	  52
  29	  54
  29	  55
  29	  57
  29	  58
  29	  61
  29	  68
  29	  72
  29	  75
  29	  78
  29	  79
  29	  81
  29	  83
  29	  84
  29	  88
  29	  95
  29	 102
  29	 105
  29	 107
  29	 111
  29	 114
  29	 115
  29	 119
  30	  32
  30	  34
  30	  37
  30	  40
  30	  41
  30	  44
  30	  45
  30	  46
  30	  48
  30	  49
  30	  51
  30	  55
  30	  64
  30	  67
  30	  75
  30	  77
  30	  79
  30	  85
  30	  88
  30	  94
  30	  97
  30	  98
  30	 103
  30	 108
  30	 115
  30	 116
  30	 117
  30	 118
  30	 119
  31	  32
  31	  33
  31	  34
  31	  37
  31	  41
  31	  46
  31	  48
  31	  50
  31	  51
  31	  57
  31	  59
  31	  64
  31	  65
  31	  66
  31	  70
  31	  72
  31	  73
  31	  74
  31	  75
  31	  79
  31	  80
  31	  81
  31	  83
  31	  85
  31	  86
  31	  87
  31	  90
  31	  91
  31	  92
  31	  93
  31	  97
  31	 105
  31	 106
  31	 107
  31	 111
  31	 116
  31	 118
  31	 119
  32	  34
  32	  37
  32	  39
  32	  44
  32	  45
  32	  50
  32	  51
  32	  54
  32	  56
  32	  57
  32	  59
  32	  60
  32	  63
  32	  66
  32	  68
  32	  69
  32	  72
  32	  77
  32	  80
  32	  81
  32	  84
  32	  86
  32	  87
  32	  90
  32	  91
  32	  93
  32	  94
  32	  96
  32	  97
  32	 101
  32	 102
  32	 104
  32	 105
  32	 106
  32	 107
  32	 109
  32	 111
  32	 113
  32	 115
  32	 116
  32	 117
  32	 118
  32	 119
  33	  34
  33	  35
  33	  36
  33	  38
  33	  39
  33	  42
  33	  45
  33	  48
  33	  50
  33	  51
  33	  52
  33	  53
  33	  54
  33	  57
  33	  67
  33	  70
  33	  71
  33	  74
  33	  78
  33	  80
  33	  82
  33	  85
  33	  88
  33	  89
  33	  96
  33	  97
  33	  98
  33	 102
  33	 106
  33	 107
  33	 108
  33	 111
  33	 113
  33	 114
  33	 116
  33	 119
  34	  35
  34	  41
  34	  45
  34	  46
  34	  47
  34	  48
  34	  49
  34	  52
  34	  54
  34	  56
  34	  57
  34	  59
  34	  64
  34	  65
  34	  69
  34	  72
  34	  73
  34	  75
  34	  77
  34	  78
  34	  79
  34	  84
  34	  85
  34	  86
  34	  92
  34	  94
  34	  98
  34	 100
  34	 101
  34	 105
  34	 106
  34	 107
  34	 108
  34	 110
  34	 115
  34	 118
  35	  36
  35	  37
  35	  38
  35	  42
  35	  43
  35	  44
  35	  47
  35	  50
  35	  58
  35	  63
  35	  64
  35	  66
  35	  67
  35	  68
  35	  74
  35	  77
  35	  78
  35	  79
  35	  81
  35	  82
  35	  83
  35	  88
  35	  91
  35	  92
  35	  93
  35	  97
  35	  98
  35	  99
  35	 100
  35	 106
  35	 107
  35	 109
  35	 113
  35	 117
  36	  37
  36	  39
  36	  40
  36	  41
  36	  44
  36	  46
  36	  48
  36	  50
  36	  51
  36	  53
  36	  58
  36	  61
  36	  62
  36	  63
  36	  66
  36	  68
  36	  69
  36	  70
  36	  72
  36	  76
  36	  80
  36	  82
  36	  86
  36	  87
  36	  89
  36	  93
  36	  97
  36	  98
  36	  99
  36	 101
  36	 102
  36	 106
  36	 110
  36	 115
  36	 118
  36	 119
  37	  47
  37	  50
  37	  52
  37	  54
  37	  56
  37	  62
  37	  65
  37	  67
  37	  74
  37	  76
  37	  77
  37	  78
  37	  80
  37	  81
  37	  82
  37	  83
  37	  85
  37	  90
  37	  91
  37	  93
  37	  94
  37	  95
  37	  96
  37	  97
  37	  98
  37	  99
  37	 106
  37	 110
  37	 111
  37	 114
  37	 118
  37	 119
  38	  39
  38	  41
  38	  42
  38	  43
  38	  45
  38	  46
  38	  48
  38	  52
  38	  54
  38	  55
  38	  56
  38	  57
  38	  58
  38	  60
  38	  64
  38	  66
  38	  71
  38	  72
  38	  78
  38	  80
  38	  81
  38	  83
  38	  84
  38	  87
  38	  88
  38	  91
  38	  93
  38	  94
  38	  96
  38	  98
  38	 100
  38	 101
  38	 103
  38	 108
  38	 109
  38	 112
  38	 113
  38	 114
  38	 115
  38	 116
  38	 118
  38	 119
  39	  45
  39	  46
  39	  47
  39	  48
  39	  49
  39	  50
  39	  51
  39	  52
  39	  60
  39	  67
  39	  73
  39	  74
  39	  75
  39	  76
  39	  79
  39	  80
  39	  81
  39	  82
  39	  83
  39	  84
  39	  88
  39	  90
  39	  93
  39	  96
  39	  97
  39	  99
  39	 103
  39	 105
  39	 106
  39	 107
  39	 108
  39	 109
  39	 111
  39	 116
  39	 117
  39	 119
  40	  42
  40	  55
  40	  57
  40	  61
  40	  64
  40	  65
  40	  67
  40	  69
  40	  70
  40	  72
  40	  80
  40	  82
  40	  84
  40	  85
  40	  86
  40	  89
  40	  93
  40	  94
  40	  95
  40	  97
  40	  98
  40	 101
  40	 102
  40	 106
  40	 107
  40	 110
  40	 119
  41	  44
  41	  46
  41	  48
  41	  49
  41	  50
  41	  51
  41	  53
  41	  55
  41	  56
  41	  59
  41	  60
  41	  62
  41	  63
  41	  64
  41	  67
  41	  81
  41	  83
  41	  84
  41	  85
  41	  89
  41	  93
  41	  94
  41	  96
  41	  98
  41	  99
  41	 102
  41	 104
  41	 105
  41	 110
  41	 111
  41	 113
  41	 114
  41	 116
  42	  45
  42	  46
  42	  54
  42	  59
  42	  60
  42	  67
  42	  70
  42	  71
  42	  72
  42	  73
  42	  75
  42	  76
  42	  79
  42	  81
  42	  82
  42	  85
  42	  89
  42	  90
  42	  91
  42	  92
  42	  95
  42	  96
  42	  98
  42	 101
  42	 104
  42	 105
  42	 106
  42	 111
  42	 113
  42	 114
  42	 115
  42	 119
  43	  46
  43	  51
  43	  52
  43	  53
  43	  54
  43	  55
  43	  59
  43	  62
  43	  64
  43	  68
  43	  71
  43	  73
  43	  75
  43	  77
  43	  83
  43	  84
  43	  85
  43	  89
  43	  91
  43	  96
  43	  97
  43	  99
  43	 100
  43	 101
  43	 102
  43	 103
  43	 106
  43	 107
  43	 112
  43	 113
  43	 115
  43	 119
  44	  47
  44	  51
  44	  53
  44	  54
  44	  55
  44	  56
  44	  58
  44	  60
  44	  62
  44	  63
  44	  69
  44	  71
  44	  72
  44	  73
  44	  77
  44	  81
  44	  82
  44	  84
  44	  91
  44	  93
  44	  96
  44	  97
  44	  98
  44	  99
  44	 100
  44	 103
  44	 104
  44	 105
  44	 107
  44	 109
  44	 110
  44	 112
  44	 115
  44	 118
  45	  49
  45	  54
  45	  56
  45	  61
  45	  64
  45	  67
  45	  68
  45	  70
  45	  71
  45	  73
  45	  76
  45	  82
  45	  83
  45	  84
  45	  85
  45	  87
  45	  96
  45	  97
  45	 109
  45	 113
  45	 116
  45	 119
  46	  47
  46	  50
  46	  52
  46	  53
  46	  57
  46	  60
  46	  61
  46	  62
  46	  64
  46	  66
  46	  69
  46	  70
  46	  71
  46	  76
  46	  78
  46	  85
  46	  86
  46	  88
  46	  89
  46	  90
  46	  91
  46	  94
  46	  98
  46	 108
  46	 109
  46	 113
  46	 114
  46	 116
  46	 117
  47	  48
  47	  53
  47	  55
  47	  63
  47	  64
  47	  66
  47	  67
  47	  68
  47	  70
  47	  72
  47	  77
  47	  80
  47	  81
  47	  87
  47	  88
  47	  90
  47	  91
  47	  92
  47	  94
  47	  95
  47	  96
  47	 101
  47	 106
  47	 108
  47	 110
  47	 111
  47	 114
  47	 118
  48	  49
  48	  50
  48	  51
  48	  54
  48	  56
  48	  57
  48	  58
  48	  60
  48	  61
  48	  66
  48	  67
  48	  70
  48	  71
  48	  74
  48	  75
  48	  79
  48	  81
  48	  85
  48	  87
  48	  89
  48	  93
  48	  96
  48	  98
  48	 101
  48	 103
  48	 104
  48	 105
  48	 108
  48	 110
  48	 112
  48	 115
  48	 116
  48	 118
  49	  50
  49	  53
  49	  55
  49	  58
  49	  60
  49	  65
  49	  67
  49	  69
  49	  72
  49	  73
  49	  77
  49	  78
  49	  79
  49	  80
  49	  81
  49	  86
  49	  89
  49	  91
  49	  95
  49	  96
  49	  97
  49	  99
  49	 100
  49	 103
  49	 108
  49	 111
  49	 112
  49	 115
  49	 116
  50	  52
  50	  53
  50	  59
  50	  64
  50	  67
  50	  69
  50	  71
  50	  72
  50	  73
  50	  74
  50	  75
  50	  76
  50	  78
  50	  79
  50	  81
  50	  82
  50	  85
  50	  86
  50	  91
  50	  96
  50	  98
  50	 101
  50	 103
  50	 104
  50	 105
  50	 108
  50	 113
  50	 115
  50	 118
  51	  55
  51	  56
  51	  59
  51	  60
  51	  62
  51	  63
  51	  65
  51	  66
  51	  71
  51	  73
  51	  76
  51	  80
  51	  82
  51	  84
  51	  85
  51	  88
  51	  93
  51	  94
  51	 102
  51	 103
  51	 106
  51	 108
  51	 109
  52	  55
  52	  57
  52	  58
  52	  59
  52	  61
  52	  62
  52	  63
  52	  68
  52	  70
  52	  71
  52	  72
  52	  73
  52	  75
  52	  76
  52	  79
  52	  81
  52	  82
  52	  86
  52	  87
  52	  88
  52	  89
  52	  90
  52	  94
  52	  96
  52	  97
  52	  98
  52	 100
  52	 101
  52	 102
  52	 104
  52	 107
  52	 108
  52	 115
  52	 116
  53	  54
  53	  55
  53	  56
  53	  57
  53	  59
  53	  60
  53	  61
  53	  62
  53	  72
  53	  75
  53	  77
  53	  79
  53	  81
  53	  82
  53	  84
  53	  89
  53	  94
  53	  95
  53	 101
  53	 104
  53	 107
  53	 111
  53	 113
  53	 114
  53	 116
  53	 118
  54	  55
  54	  56
  54	  57
  54	  58
  54	  62
  54	  63
  54	  64
  54	  65
  54	  69
  54	  71
  54	  72
  54	  74
  54	  75
  54	  82
  54	  84
  54	  85
  54	  86
  54	  88
  54	  90
  54	  92
  54	  93
  54	  94
  54	  95
  54	  97
  54	 100
  54	 105
  54	 106
  54	 107
  54	 110
  54	 111
  54	 112
  54	 113
  54	 115
  54	 116
  54	 117
  54	 118
  55	  56
  55	  60
  55	  61
  55	  63
  55	  64
  55	  68
  55	  70
  55	  75
  55	  76
  55	  77
  55	  83
  55	  84
  55	  85
  55	  90
  55	  91
  55	  97
  55	 102
  55	 103
  55	 104
  55	 105
  55	 107
  55	 110
  55	 111
  55	 112
  55	 113
  55	 116
  55	 119
  56	  57
  56	  58
  56	  59
  56	  61
  56	  63
  56	  66
  56	  75
  56	  76
  56	  77
  56	  79
  56	  80
  56	  84
  56	  85
  56	  87
  56	  88
  56	 100
  56	 102
  56	 110
  56	 111
  56	 114
  56	 115
  56	 116
  56	 117
  57	  58
  57	  62
  57	  63
  57	  64
  57	  66
  57	  69
  57	  73
  57	  75
  57	  77
  57	  79
  57	  84
  57	  87
  57	  89
  57	  90
  57	  92
  57	  97
  57	 102
  57	 103
  57	 116
  57	 119
  58	  59
  58	  65
  58	  66
  58	  67
  58	  69
  58	  70
  58	  71
  58	  76
  58	  81
  58	  82
  58	  83
  58	  84
  58	  85
  58	  91
  58	  96
  58	  97
  58	 102
  58	 104
  58	 107
  58	 111
  58	 112
  58	 113
  58	 115
  58	 117
  58	 118
  59	  61
  59	  62
  59	  71
  59	  72
  59	  73
  59	  74
  59	  75
  59	  78
  59	  79
  59	  80
  59	  81
  59	  82
  59	  84
  59	  89
  59	  91
  59	  95
  59	 103
  59	 105
  59	 108
  59	 109
  59	 110
  59	 112
  59	 117
  60	  61
  60	  64
  60	  67
  60	  68
  60	  71
  60	  74
  60	  79
  60	  80
  60	  88
  60	  91
  60	  93
  60	  94
  60	 100
  60	 101
  60	 102
  60	 108
  60	 109
  60	 112
  61	  64
  61	  66
  61	  70
  61	  75
  61	  76
  61	  79
  61	  80
  61	  81
  61	  82
  61	  85
  61	  86
  61	  87
  61	  93
  61	  95
  61	  97
  61	  98
  61	  99
  61	 102
  61	 103
  61	 104
  61	 105
  61	 107
  61	 108
  61	 109
  61	 116
  61	 118
  61	 119
  62	  64
  62	  65
  62	  66
  62	  68
  62	  71
  62	  74
  62	  76
  62	  77
  62	  78
  62	  81
  62	  82
  62	  83
  62	  85
  62	  86
  62	  87
  62	  88
  62	  95
  62	  97
  62	 100
  62	 102
  62	 104
  62	 109
  62	 110
  62	 114
  62	 118
  62	 119
  63	  65
  63	  66
  63	  67
  63	  70
  63	  77
  63	  78
  63	  81
  63	  85
  63	  88
  63	  89
  63	  90
  63	  91
  63	 101
  63	 110
  64	  65
  64	  67
  64	  68
  64	  69
  64	  73
  64	  74
  64	  75
  64	  78
  64	  80
  64	  81
  64	  82
  64	  84
  64	  91
  64	  95
  64	 103
  64	 108
  64	 109
  64	 113
  64	 116
  64	 118
  65	  66
  65	  69
  65	  74
  65	  79
  65	  80
  65	  82
  65	  86
  65	  89
  65	  92
  65	  93
  65	  97
  65	 101
  65	 102
  65	 106
  65	 107
  65	 110
  65	 113
  65	 116
  65	 117
  66	  67
  66	  71
  66	  72
  66	  75
  66	  77
  66	  78
  66	  80
  66	  81
  66	  83
  66	  87
  66	  91
  66	  92
  66	  95
  66	  99
  66	 100
  66	 101
  66	 106
  66	 112
  66	 113
  66	 119
  67	  69
  67	  71
  67	  73
  67	  78
  67	  79
  67	  81
  67	  82
  67	  83
  67	  84
  67	  85
  67	  87
  67	  88
  67	  92
  67	  95
  67	  96
  67	  97
  67	 100
  67	 103
  67	 105
  67	 110
  67	 113
  67	 114
  67	 116
  67	 119
  68	  70
  68	  72
  68	  75
  68	  81
  68	  82
  68	  88
  68	  90
  68	  92
  68	  93
  68	  94
  68	 104
  68	 106
  68	 107
  68	 108
  68	 109
  68	 110
  68	 112
  68	 115
  68	 117
  68	 118
  69	  73
  69	  74
  69	  76
  69	  77
  69	  82
  69	  86
  69	  94
  69	  97
  69	  98
  69	  99
  69	 100
  69	 109
  69	 111
  69	 117
  70	  74
  70	  76
  70	  77
  70	  79
  70	  80
  70	  81
  70	  82
  70	  88
  70	  90
  70	  91
  70	  93
  70	  94
  70	  96
  70	  97
  70	  98
  70	  99
  70	 101
  70	 103
  70	 108
  70	 114
  70	 115
  70	 118
  71	  72
  71	  73
  71	  75
  71	  77
  71	  79
  71	  80
  71	  81
  71	  83
  71	  90
  71	  92
  71	 100
  71	 102
  71	 103
  71	 106
  71	 110
  71	 113
  71	 116
  71	 117
  72	  75
  72	  76
  72	  80
  72	  83
  72	  84
  72	  85
  72	  88
  72	  95
  72	  96
  72	  97
  72	 100
  72	 102
  72	 103
  72	 106
  72	 108
  72	 111
  72	 114
  72	 117
  73	  75
  73	  80
  73	  83
  73	  84
  73	  89
  73	  90
  73	  92
  73	  93
  73	  98
  73	  99
  73	 100
  73	 101
  73	 102
  73	 105
  73	 106
  73	 107
  73	 109
  73	 115
  73	 117
  73	 119
  74	  75
  74	  77
  74	  81
  74	  83
  74	  84
  74	  85
  74	  86
  74	  90
  74	  91
  74	  92
  74	  93
  74	  95
  74	  97
  74	  98
  74	 100
  74	 102
  74	 103
  74	 104
  74	 106
  74	 107
  74	 108
  74	 109
  74	 110
  74	 111
  74	 113
  74	 115
  74	 116
  74	 118
  75	  76
  75	  79
  75	  81
  75	  83
  75	  95
  75	  96
  75	  97
  75	  98
  75	  99
  75	 103
  75	 104
  75	 105
  75	 108
  75	 109
  75	 110
  75	 112
  75	 113
  75	 114
  75	 115
  76	  78
  76	  79
  76	  81
  76	  86
  76	  95
  76	  97
  76	 102
  76	 104
  76	 107
  76	 108
  76	 110
  76	 111
  76	 115
  76	 118
  76	 119
  77	  81
  77	  85
  77	  88
  77	  97
  77	 101
  77	 103
  77	 105
  77	 106
  77	 107
  77	 110
  77	 111
  77	 112
  77	 115
  78	  84
  78	  85
  78	  86
  78	  91
  78	  94
  78	  95
  78	  97
  78	  98
  78	 100
  78	 102
  78	 103
  78	 108
  78	 109
  78	 113
  79	  80
  79	  81
  79	  86
  79	  87
  79	  88
  79	  89
  79	  92
  79	  95
  79	  98
  79	  99
  79	 101
  79	 104
  79	 106
  79	 110
  79	 113
  79	 114
  79	 116
  79	 118
  80	  86
  80	  87
  80	  89
  80	  93
  80	  95
  80	  96
  80	  98
  80	 102
  80	 103
  80	 105
  80	 112
  80	 113
  80	 114
  81	  85
  81	  86
  81	  93
  81	  96
  81	  97
  81	  98
  81	 101
  81	 102
  81	 105
  81	 108
  81	 109
  81	 112
  81	 113
  81	 118
  81	 119
  82	  83
  82	  84
  82	  86
  82	  88
  82	  89
  82	  90
  82	  92
  82	  93
  82	  94
  82	  96
  82	  99
  82	 100
  82	 102
  82	 103
  82	 105
  82	 113
  82	 117
  82	 119
  83	  84
  83	  85
  83	  90
  83	  91
  83	  93
  83	  98
  83	 101
  83	 103
  83	 104
  83	 107
  83	 110
  83	 111
  83	 114
  83	 115
  83	 117
  83	 119
  84	  89
  84	  90
  84	  91
  84	  95
  84	  97
  84	 104
  84	 106
  84	 108
  84	 109
  84	 113
  85	  86
  85	  87
  85	  91
  85	  95
  85	  98
  85	  99
  85	 101
  85	 106
  85	 107
  85	 110
  85	 112
  85	 114
  85	 115
  85	 116
  86	  88
  86	  90
  86	  93
  86	  95
  86	  99
  86	 106
  86	 107
  86	 108
  86	 111
  86	 114
  86	 116
  86	 118
  87	  90
  87	  93
  87	  95
  87	  97
  87	  98
  87	 104
  87	 105
  87	 106
  87	 114
  87	 116
  87	 118
  88	  89
  88	  90
  88	  93
  88	  98
  88	  99
  88	 101
  88	 105
  88	 106
  88	 109
  88	 111
  88	 115
  88	 116
  88	 117
  88	 118
  88	 119
  89	  90
  89	  94
  89	  96
  89	 101
  89	 104
  89	 108
  89	 112
  89	 114
  89	 116
  89	 119
  90	  92
  90	  93
  90	  94
  90	  95
  90	 104
  90	 108
  90	 109
  90	 113
  90	 115
  90	 116
  91	  94
  91	  97
  91	  99
  91	 104
  91	 107
  91	 111
  91	 113
  91	 114
  91	 115
  91	 117
  91	 118
  92	  94
  92	  98
  92	  99
  92	 101
  92	 102
  92	 103
  92	 105
  92	 107
  92	 109
  92	 110
  92	 111
  92	 112
  92	 113
  92	 114
  92	 115
  92	 119
  93	  95
  93	 100
  93	 101
  93	 103
  93	 105
  93	 108
  93	 110
  93	 113
  93	 116
  93	 117
  94	  96
  94	  98
  94	  99
  94	 100
  94	 102
  94	 103
  94	 105
  94	 106
  94	 109
  94	 110
  94	 111
  94	 112
  94	 115
  94	 116
  94	 117
  94	 119
  95	  97
  95	 100
  95	 104
  95	 111
  95	 112
  95	 114
  95	 118
  96	 100
  96	 102
  96	 108
  96	 110
  96	 113
  96	 118
  97	  98
  97	 102
  97	 104
  97	 105
  97	 112
  97	 113
  97	 115
  97	 116
  97	 119
  98	 105
  98	 108
  98	 112
  98	 113
  98	 118
  99	 100
  99	 104
  99	 106
  99	 110
  99	 112
  99	 116
 100	 106
 100	 107
 100	 108
 100	 110
 100	 112
 100	 113
 100	 114
 100	 116
 100	 117
 100	 119
 101	 105
 101	 106
 101	 107
 101	 108
 101	 109
 101	 111
 101	 112
 101	 116
 101	 118
 102	 103
 102	 105
 102	 109
 102	 110
 102	 111
 102	 119
 103	 106
 103	 108
 103	 112
 103	 114
 103	 115
 103	 118
 104	 113
 105	 106
 105	 108
 105	 112
 105	 114
 105	 115
 105	 119
 106	 107
 106	 109
 106	 110
 106	 112
 106	 114
 106	 115
 106	 116
 106	 117
 107	 109
 107	 111
 107	 113
 107	 116
 107	 118
 108	 110
 108	 113
 108	 114
 108	 115
 108	 117
 109	 110
 109	 113
 109	 116
 109	 118
 109	 119
 110	 113
 110	 114
 110	 116
 110	 117
 111	 114
 111	 115
 111	 116
 111	 117
 112	 114
 112	 118
 113	 118
 113	 119
 114	 115
 114	 118
 114	 119
 117	 118
 117	 119
;
